WARNING: for repeatability, setting FPU to use double precision
============================[ Problem Statistics ]=============================
|                                                                             |
|  Number of variables:            50                                         |
|  Number of clauses:             218                                         |
|  Parse time:                   0.00 s                                       |
|                                                                             |
============================[ Search Statistics ]==============================
| Conflicts |          ORIGINAL         |          LEARNT          | Progress |
|           |    Vars  Clauses Literals |    Limit  Clauses Lit/Cl |          |
===============================================================================
===============================================================================
restarts              : 1
conflicts             : 11             (61798 /sec)
decisions             : 26             (0.00 % random) (146067 /sec)
propagations          : 224            (1258427 /sec)
conflict literals     : 49             (19.67 % deleted)
Memory used           : 20.00 MB
CPU time              : 0.000178 s

SATISFIABLE
